p cnf 45 25
-34 17 -11 0
27 5 12 0
-3 -5 -44 0
-43 -35 -30 0
-40 5 -21 0
-35 25 2 0
-13 12 -23 0
13 7 9 0
-17 36 11 0
-16 19 18 0
-28 -38 29 0
1 2 3 4 5 6 7 8 9 10 11 12 13 14 15 16 17 18 19 20 21 22 23 24 25 26 27 28 29 30 31 32 33 34 35 36 37 38 39 40 41 42 43 44 45 0
-33 -14 37 0
-22 34 44 0
40 -21 -36 0
43 -6 -7 0
8 -13 19 0
1 18 -3 0
8 21 33 0
15 -21 -27 0
-16 19 27 0
27 -6 -5 0
25 31 19 0
-1 -2 -3 -4 -5 -6 -7 -8 -9 -10 -11 -12 -13 -14 -15 -16 -17 -18 -19 -20 -21 -22 -23 -24 -25 -26 -27 -28 -29 -30 -31 -32 -33 -34 -35 -36 -37 -38 -39 -40 -41 -42 -43 -44 -45 0
-44 -19 -5 0
